
  27    0


   0  15 2 3 4 5 6 7 8 10 11 21 22 23 24 25 26 
   4   6 20 18 17 15 13 12 
   4   5 19 18 16 13 9 
   1   3 14 13 9 
   5   3 14 13 9 
   8   2 13 9 
   3   2 17 14 
  10   2 16 14 
   5   1 12 
  10   1 15 
   5   1 12 
   5   1 27
   6   1 27
   9   1 27
   6   1 27
   6   1 27
   1   1 27
   2   1 27
   2   1 27
   1   1 27
   6   1 27
   4   1 27
   1   1 27
   7   1 27
   4   1 27
   4   1 27
   0   0 
